NAME: gr17
TYPE: TSP
COMMENT: 17-city problem (Groetschel)
DIMENSION: 5
EDGE_WEIGHT_TYPE: EXPLICIT
EDGE_WEIGHT_FORMAT: FULL_MATRIX
EDGE_WEIGHT_SECTION
0 30 26 50 40
30 0 24 40 50
26 24 0 24 26
50 40 24 0 30
40 50 26 30 0
EOF
